clasp version 2.1.3
Reading from asp/inst/pb_400_04.lp
Solving...
UNSATISFIABLE

Models      : 0     
Time        : 130.640s (Solving: 125.52s 1st Model: 0.00s Unsat: 125.52s)
CPU Time    : 130.330s
Choices     : 2014947
Conflicts   : 16250
Restarts    : 10     (Average: 1624.90 Last: 4907)

Atoms       : 696745 (Original: 22600 Auxiliary: 674145)
Rules       : 1409758 (1: 37368/1407303 2: 2055/0 3: 400/0)
Bodies      : 1336828
Equivalences: 1417196 (Atom=Atom: 7312 Body=Body: 10400 Other: 1399484)
Tight       : Yes

Variables   : 1319168 (Eliminated:    0 Frozen:    0)
Constraints : 3901138 (Binary: 67.6% Ternary: 32.3% Other:  0.1%)
Lemmas      : 16249  (Binary: 12.1% Ternary: 15.6% Other: 72.3%)
  Conflict  : 16249  (Average Length: 26.1) 
  Loop      : 0      (Average Length: 0.0) 
  Other     : 0      (Average Length: 0.0)
  Deleted   : 0     
